226 171926
1 2 3 4 5 6 7 8 71 69 70 103 104 115 116 109 119 120 121 123 124 204 203 61 60 59 58 57 56 55 54 65 68 81 82 83 85 86 84 80 79 78 77 73 72 64 62 63 137 144 146 145 147 140 141 149 148 150 143 142 177 178 179 180 181 182 183 184 185 136 135 134 133 130 125 224 225 226 223 222 221 220 219 218 217 216 49 36 37 38 39 40 41 166 167 168 169 170 171 172 173 174 175 176 66 67 17 16 13 12 11 9 10 14 15 18 19 20 51 53 52 50 21 22 23 24 25 26 27 28 29 30 34 35 31 32 33 48 45 46 47 88 90 91 151 152 153 154 155 156 157 158 159 160 161 162 163 164 165 139 138 93 92 99 97 89 87 44 42 43 95 96 98 100 101 94 102 186 187 188 189 190 191 192 193 194 195 196 197 198 199 200 201 202 205 206 207 208 209 210 211 212 213 215 214 132 131 122 129 127 128 126 110 118 117 108 107 106 114 113 105 112 111 76 75 74 
